Al  O Ti                                
   1.00000000000000     
    10.8859879982751693    0.0000000006878426   -0.0000000007196187
     0.0000000011022966    9.4654664788020586   -0.0000000013874803
    -0.0000000011154462    0.0000000013821745    9.7438932135926741
   Al   O    Ti
    24    60    12
Direct
 -0.0000000241281937  0.1404540800501305  0.5560211758931977
 -0.0000000262673564  0.1404540806089247  0.9439788255133007
 -0.0000000194075948  0.8595459238159466  0.0560211745659401
 -0.0000000176253576  0.8595459245395836  0.4439788232265238
  0.1666666719268064  0.3595459378244544  0.0560211899994770
  0.1666666716863106  0.3595459390683225  0.4439788089068943
  0.1666666764512379  0.6404540654830846  0.5560211917319646
  0.1666666763049699  0.6404540662540704  0.9439788098194479
  0.3333333452964062  0.1404540898596129  0.5560211638109860
  0.3333333466002583  0.1404540902175315  0.9439788381301679
  0.3333333456817022  0.8595459018689244  0.0560211618756473
  0.3333333440869730  0.8595459024995040  0.4439788366097129
  0.4999999822182771  0.3595459182136514  0.0560211722688232
  0.4999999804602272  0.3595459180924909  0.4439788252738986
  0.4999999753264542  0.6404540842504394  0.5560211749990682
  0.4999999766595065  0.6404540837850127  0.9439788278697218
  0.6666666787745288  0.1404540694377753  0.5560211925799083
  0.6666666788168666  0.1404540679362550  0.9439788113266149
  0.6666666739545318  0.8595459377095676  0.0560211885545976
  0.6666666736570538  0.8595459372153728  0.4439788085981022
  0.8333333453171905  0.3595459052438070  0.0560211624246262
  0.8333333472911537  0.3595459049021678  0.4439788344507818
  0.8333333488493279  0.6404540863228018  0.5560211652993130
  0.8333333466968769  0.6404540856533404  0.9439788376066341
  0.0000000016897889  0.0444315532714133  0.1167371573006608
  0.0000000052867073  0.0444315537528076  0.3832628428664241
  0.0000000218946253  0.2336762902847034  0.7500000010388989
 -0.0000000140311718  0.3120183956674544  0.0664218558069215
 -0.0000000127172903  0.3120183961929334  0.4335781419574226
 -0.0000000162663193  0.6879816052799175  0.5664218581417578
 -0.0000000184263319  0.6879816055282832  0.9335781433674738
  0.0000000139557643  0.7663237109608770  0.2499999990588654
  0.0000000051869603  0.9555684413461154  0.6167371586858832
  0.0000000000093123  0.9555684414986045  0.8832628403355606
  0.1666666751722237  0.1879815793840637  0.5664218684224152
  0.1666666748161407  0.1879815797496891  0.9335781345454818
  0.1666666689879218  0.2663236906708079  0.2499999972976354
  0.1666666672489886  0.4555683984278537  0.6167371702454522
  0.1666666669590780  0.4555683988835854  0.8832628297727749
  0.1666666679992914  0.5444315929160806  0.1167371671158073
  0.1666666660931139  0.5444315935615109  0.3832628331980497
  0.1666666622396016  0.7336763103263996  0.7500000021978903
  0.1666666731162298  0.8120184202947546  0.0664218638699579
  0.1666666733993219  0.8120184210668451  0.4335781331974689
  0.3333333351710756  0.0444315401097831  0.1167371608318578
  0.3333333311389104  0.0444315410502637  0.3832628395806493
  0.3333333273255054  0.2336762765773799  0.7500000010722002
  0.3333333437923402  0.3120183739166960  0.0664218546112743
  0.3333333415691707  0.3120183754801501  0.4335781434744271
  0.3333333439712876  0.6879816230676005  0.5664218560723016
  0.3333333448555931  0.6879816240758749  0.9335781455882795
  0.3333333286475089  0.7663237211896983  0.2499999989275572
  0.3333333317175526  0.9555684699935241  0.6167371565971893
  0.3333333341853942  0.9555684702357375  0.8832628434639577
  0.4999999815405609  0.1879816076937658  0.5664218601711697
  0.4999999831130923  0.1879816091097668  0.9335781389690365
  0.5000000116152046  0.2663237084682575  0.2500000015630173
  0.5000000006317734  0.4555684323822743  0.6167371701092822
  0.5000000033085219  0.4555684329655257  0.8832628293529109
  0.5000000048090448  0.5444315617999388  0.1167371681795466
  0.5000000002890936  0.5444315630616093  0.3832628327813917
  0.5000000193981367  0.7336762915864943  0.7499999982272331
  0.4999999867062034  0.8120183905151520  0.0664218594793080
  0.4999999854265645  0.8120183924051496  0.4335781413421871
  0.6666666647654214  0.0444315955979618  0.1167371718108252
  0.6666666628943878  0.0444315967422340  0.3832628303946283
  0.6666666500845635  0.2336763121466044  0.7499999964756958
  0.6666666704050670  0.3120184185467513  0.0664218675275262
  0.6666666700525175  0.3120184219267053  0.4335781341754538
  0.6666666740000177  0.6879815796350734  0.5664218662397515
  0.6666666732272372  0.6879815822752144  0.9335781321082471
  0.6666666574025902  0.7663236897241310  0.2500000027066760
  0.6666666647045684  0.9555683946387868  0.6167371725079193
  0.6666666640965581  0.9555683954837179  0.8832628266583288
  0.8333333435335661  0.1879816203749867  0.5664218525170626
  0.8333333416428839  0.1879816228911167  0.9335781467049498
  0.8333333186793257  0.2663237238811062  0.2500000016235481
  0.8333333340888139  0.4555684784547377  0.6167371482670860
  0.8333333272378043  0.4555684792729236  0.8832628500808050
  0.8333333287248607  0.5444315353981846  0.1167371545633745
  0.8333333323293372  0.5444315364278220  0.3832628470128752
  0.8333333183811356  0.7336762748724582  0.7499999982365977
  0.8333333405646871  0.8120183759996222  0.0664218546444878
  0.8333333418073765  0.8120183788494080  0.4335781454542639
  0.0000000039394150  0.1853515830585283  0.2499999995290794
  0.0000000117621424  0.8146484208213751  0.7500000001025182
  0.1666666576826758  0.3146484808038612  0.7500000004649680
  0.1666666641988807  0.6853515268238330  0.2499999997707213
  0.3333333271207424  0.1853516134447865  0.2500000003417184
  0.3333333259064006  0.8146483754334799  0.7499999999310170
  0.5000000128824692  0.3146484261714185  0.7499999991727617
  0.5000000049167925  0.6853515762787474  0.2500000009705022
  0.6666666687690247  0.1853515242210414  0.2500000013057347
  0.6666666630560297  0.8146484844545306  0.7499999987836014
  0.8333333291414837  0.3146483697076695  0.7499999991620533
  0.8333333315465770  0.6853516200390709  0.2500000006022925
 
  0.00000000E+00  0.00000000E+00  0.00000000E+00
  0.00000000E+00  0.00000000E+00  0.00000000E+00
  0.00000000E+00  0.00000000E+00  0.00000000E+00
  0.00000000E+00  0.00000000E+00  0.00000000E+00
  0.00000000E+00  0.00000000E+00  0.00000000E+00
  0.00000000E+00  0.00000000E+00  0.00000000E+00
  0.00000000E+00  0.00000000E+00  0.00000000E+00
  0.00000000E+00  0.00000000E+00  0.00000000E+00
  0.00000000E+00  0.00000000E+00  0.00000000E+00
  0.00000000E+00  0.00000000E+00  0.00000000E+00
  0.00000000E+00  0.00000000E+00  0.00000000E+00
  0.00000000E+00  0.00000000E+00  0.00000000E+00
  0.00000000E+00  0.00000000E+00  0.00000000E+00
  0.00000000E+00  0.00000000E+00  0.00000000E+00
  0.00000000E+00  0.00000000E+00  0.00000000E+00
  0.00000000E+00  0.00000000E+00  0.00000000E+00
  0.00000000E+00  0.00000000E+00  0.00000000E+00
  0.00000000E+00  0.00000000E+00  0.00000000E+00
  0.00000000E+00  0.00000000E+00  0.00000000E+00
  0.00000000E+00  0.00000000E+00  0.00000000E+00
  0.00000000E+00  0.00000000E+00  0.00000000E+00
  0.00000000E+00  0.00000000E+00  0.00000000E+00
  0.00000000E+00  0.00000000E+00  0.00000000E+00
  0.00000000E+00  0.00000000E+00  0.00000000E+00
  0.00000000E+00  0.00000000E+00  0.00000000E+00
  0.00000000E+00  0.00000000E+00  0.00000000E+00
  0.00000000E+00  0.00000000E+00  0.00000000E+00
  0.00000000E+00  0.00000000E+00  0.00000000E+00
  0.00000000E+00  0.00000000E+00  0.00000000E+00
  0.00000000E+00  0.00000000E+00  0.00000000E+00
  0.00000000E+00  0.00000000E+00  0.00000000E+00
  0.00000000E+00  0.00000000E+00  0.00000000E+00
  0.00000000E+00  0.00000000E+00  0.00000000E+00
  0.00000000E+00  0.00000000E+00  0.00000000E+00
  0.00000000E+00  0.00000000E+00  0.00000000E+00
  0.00000000E+00  0.00000000E+00  0.00000000E+00
  0.00000000E+00  0.00000000E+00  0.00000000E+00
  0.00000000E+00  0.00000000E+00  0.00000000E+00
  0.00000000E+00  0.00000000E+00  0.00000000E+00
  0.00000000E+00  0.00000000E+00  0.00000000E+00
  0.00000000E+00  0.00000000E+00  0.00000000E+00
  0.00000000E+00  0.00000000E+00  0.00000000E+00
  0.00000000E+00  0.00000000E+00  0.00000000E+00
  0.00000000E+00  0.00000000E+00  0.00000000E+00
  0.00000000E+00  0.00000000E+00  0.00000000E+00
  0.00000000E+00  0.00000000E+00  0.00000000E+00
  0.00000000E+00  0.00000000E+00  0.00000000E+00
  0.00000000E+00  0.00000000E+00  0.00000000E+00
  0.00000000E+00  0.00000000E+00  0.00000000E+00
  0.00000000E+00  0.00000000E+00  0.00000000E+00
  0.00000000E+00  0.00000000E+00  0.00000000E+00
  0.00000000E+00  0.00000000E+00  0.00000000E+00
  0.00000000E+00  0.00000000E+00  0.00000000E+00
  0.00000000E+00  0.00000000E+00  0.00000000E+00
  0.00000000E+00  0.00000000E+00  0.00000000E+00
  0.00000000E+00  0.00000000E+00  0.00000000E+00
  0.00000000E+00  0.00000000E+00  0.00000000E+00
  0.00000000E+00  0.00000000E+00  0.00000000E+00
  0.00000000E+00  0.00000000E+00  0.00000000E+00
  0.00000000E+00  0.00000000E+00  0.00000000E+00
  0.00000000E+00  0.00000000E+00  0.00000000E+00
  0.00000000E+00  0.00000000E+00  0.00000000E+00
  0.00000000E+00  0.00000000E+00  0.00000000E+00
  0.00000000E+00  0.00000000E+00  0.00000000E+00
  0.00000000E+00  0.00000000E+00  0.00000000E+00
  0.00000000E+00  0.00000000E+00  0.00000000E+00
  0.00000000E+00  0.00000000E+00  0.00000000E+00
  0.00000000E+00  0.00000000E+00  0.00000000E+00
  0.00000000E+00  0.00000000E+00  0.00000000E+00
  0.00000000E+00  0.00000000E+00  0.00000000E+00
  0.00000000E+00  0.00000000E+00  0.00000000E+00
  0.00000000E+00  0.00000000E+00  0.00000000E+00
  0.00000000E+00  0.00000000E+00  0.00000000E+00
  0.00000000E+00  0.00000000E+00  0.00000000E+00
  0.00000000E+00  0.00000000E+00  0.00000000E+00
  0.00000000E+00  0.00000000E+00  0.00000000E+00
  0.00000000E+00  0.00000000E+00  0.00000000E+00
  0.00000000E+00  0.00000000E+00  0.00000000E+00
  0.00000000E+00  0.00000000E+00  0.00000000E+00
  0.00000000E+00  0.00000000E+00  0.00000000E+00
  0.00000000E+00  0.00000000E+00  0.00000000E+00
  0.00000000E+00  0.00000000E+00  0.00000000E+00
  0.00000000E+00  0.00000000E+00  0.00000000E+00
  0.00000000E+00  0.00000000E+00  0.00000000E+00
  0.00000000E+00  0.00000000E+00  0.00000000E+00
  0.00000000E+00  0.00000000E+00  0.00000000E+00
  0.00000000E+00  0.00000000E+00  0.00000000E+00
  0.00000000E+00  0.00000000E+00  0.00000000E+00
  0.00000000E+00  0.00000000E+00  0.00000000E+00
  0.00000000E+00  0.00000000E+00  0.00000000E+00
  0.00000000E+00  0.00000000E+00  0.00000000E+00
  0.00000000E+00  0.00000000E+00  0.00000000E+00
  0.00000000E+00  0.00000000E+00  0.00000000E+00
  0.00000000E+00  0.00000000E+00  0.00000000E+00
  0.00000000E+00  0.00000000E+00  0.00000000E+00
  0.00000000E+00  0.00000000E+00  0.00000000E+00
