O Al Ti                                 
   1.00000000000000     
    12.8563101367438346    0.0000000000000000    0.0000000000000000
     0.0000000000000000    9.4439194476350448    0.0000000000000000
     0.0000000000000000    0.0000000000000000    3.5966821348718070
   O    Al   Ti
    26    12     4
Direct
  0.3824089841839822  0.6871139432521147  0.9998472570570414
  0.6445005659567826  0.6580137202981220  0.9998633134798141
  0.8517032860319702  0.9604488878820021  0.9997615493255338
  0.7618418811229333  0.7474746787976017  0.4997856252897961
  0.6409164645377956  0.9312923306136156  0.9998412177803147
  0.6444314593384064  0.1579034888909447  0.4997972227840251
  0.6408178352144986  0.4313796936371190  0.4998870153012334
  0.4259140632521365  0.9587984443014790  0.9998328181388487
  0.2419541796913833  0.0437898977366231  0.9997724939898660
  0.8942028222472516  0.6936344061163240  0.9997431957702645
  0.8516709245414376  0.4604528714228380  0.4997877721500288
  0.4258520317543955  0.4586033964780682  0.4998153838758412
  0.0345718866895339  0.5459306603550402  0.4997349639393747
  0.0008260260040203  0.3147557211380771  0.9997399695889300
  0.2833569433328691  0.3134166521003294  0.9997656762958584
  0.0008715992884589  0.8149284377254631  0.4997515129723311
  0.8941935035442938  0.1936766943933819  0.4997248545224693
  0.3824176616988098  0.1871287014680476  0.4997720118124960
  0.2832893552880194  0.8133611810171715  0.4997939256000308
  0.2418121073070196  0.5440379760673792  0.4998150618445152
  0.1456844249873015  0.7636473810998012  0.9997966737012760
  0.7618027711146951  0.2473296593218350  0.9997584825994892
  0.1457568983023450  0.2633523409408483  0.4997388506026894
  0.5190884973270116  0.7316491565690697  0.4998968905359575
  0.5190490180054397  0.2314443632695458  0.9998249555438505
  0.0348320501923141  0.0457111861296653  0.9997049239878919
  0.3688097529846743  0.1409532529713786  0.9997636039647944
  0.6482748413384698  0.6223348924253926  0.4998879373871077
  0.9010507741078371  0.6415031892368788  0.4997457377117840
  0.9796662237599065  0.3653451805587054  0.4997329238035704
  0.2854950937374738  0.3590779742890220  0.4997706755130196
  0.3689679649124855  0.6407584604300922  0.4998705846761098
  0.9011811258767111  0.1414660883733632  0.9997438774560976
  0.9796796426851699  0.8654845588801976  0.9997539065678396
  0.2851883395084727  0.8591216884279120  0.9998281690574515
  0.6482420007928056  0.1222459005384309  0.9997941804003645
  0.7625419048629709  0.3121314663740122  0.4997862668210544
  0.7625756884424959  0.8121301942618686  0.9997615366390349
  0.5201971993346532  0.3123700398028291  0.4998128066010068
  0.1363163860529966  0.1843725434024535  0.9997561410718987
  0.5201408773857139  0.8126011738198429  0.9999336269966150
  0.1363185342744870  0.6843831694416593  0.4998211750533770
 
  0.00000000E+00  0.00000000E+00  0.00000000E+00
  0.00000000E+00  0.00000000E+00  0.00000000E+00
  0.00000000E+00  0.00000000E+00  0.00000000E+00
  0.00000000E+00  0.00000000E+00  0.00000000E+00
  0.00000000E+00  0.00000000E+00  0.00000000E+00
  0.00000000E+00  0.00000000E+00  0.00000000E+00
  0.00000000E+00  0.00000000E+00  0.00000000E+00
  0.00000000E+00  0.00000000E+00  0.00000000E+00
  0.00000000E+00  0.00000000E+00  0.00000000E+00
  0.00000000E+00  0.00000000E+00  0.00000000E+00
  0.00000000E+00  0.00000000E+00  0.00000000E+00
  0.00000000E+00  0.00000000E+00  0.00000000E+00
  0.00000000E+00  0.00000000E+00  0.00000000E+00
  0.00000000E+00  0.00000000E+00  0.00000000E+00
  0.00000000E+00  0.00000000E+00  0.00000000E+00
  0.00000000E+00  0.00000000E+00  0.00000000E+00
  0.00000000E+00  0.00000000E+00  0.00000000E+00
  0.00000000E+00  0.00000000E+00  0.00000000E+00
  0.00000000E+00  0.00000000E+00  0.00000000E+00
  0.00000000E+00  0.00000000E+00  0.00000000E+00
  0.00000000E+00  0.00000000E+00  0.00000000E+00
  0.00000000E+00  0.00000000E+00  0.00000000E+00
  0.00000000E+00  0.00000000E+00  0.00000000E+00
  0.00000000E+00  0.00000000E+00  0.00000000E+00
  0.00000000E+00  0.00000000E+00  0.00000000E+00
  0.00000000E+00  0.00000000E+00  0.00000000E+00
  0.00000000E+00  0.00000000E+00  0.00000000E+00
  0.00000000E+00  0.00000000E+00  0.00000000E+00
  0.00000000E+00  0.00000000E+00  0.00000000E+00
  0.00000000E+00  0.00000000E+00  0.00000000E+00
  0.00000000E+00  0.00000000E+00  0.00000000E+00
  0.00000000E+00  0.00000000E+00  0.00000000E+00
  0.00000000E+00  0.00000000E+00  0.00000000E+00
  0.00000000E+00  0.00000000E+00  0.00000000E+00
  0.00000000E+00  0.00000000E+00  0.00000000E+00
  0.00000000E+00  0.00000000E+00  0.00000000E+00
  0.00000000E+00  0.00000000E+00  0.00000000E+00
  0.00000000E+00  0.00000000E+00  0.00000000E+00
  0.00000000E+00  0.00000000E+00  0.00000000E+00
  0.00000000E+00  0.00000000E+00  0.00000000E+00
  0.00000000E+00  0.00000000E+00  0.00000000E+00
  0.00000000E+00  0.00000000E+00  0.00000000E+00
