Ti Al  O 
 1.0000000000000000
     3.6399499999999998    0.0000000000000000    0.0000000000000000
     0.0000000000000000    9.3107000000000006    0.0000000000000000
     0.0000000000000000    0.0000000000000000   65.3209999999999980
 Ti  Al  O  
  20  64 136
Cartesian
  0.0000000000000000  1.1195818700000000 61.1855060999999978
 -0.0000000000000000  1.7714806500000000 27.3487259899999984
  0.0000000000000000  1.8234067899999999 42.7636460599999992
  0.0000000000000000  1.8522551599999999 55.4419239899999994
  0.0000000000000000  1.8596198300000000 17.8950296500000015
  0.0000000000000000  7.4544991800000000 22.5718659899999992
  0.0000000000000000  7.4765007499999996 38.0148797000000016
  0.0000000000000000  7.4870447999999996 47.6222784899999994
  0.0000000000000000  7.9930506200000000 32.0658262899999968
  0.0000000000000000  8.0452632800000003  7.1532632200000004
  0.0000000000000000  8.0990969699999997 15.9554746400000003
  0.0000000000000000  8.1603086900000008  3.4598065400000002
  1.8199749999999999  2.8062386300000002 35.0149018600000019
  1.8199749999999999  2.8146266400000002 22.5782741499999986
  1.8199749999999999  3.0344440600000002 50.4646416599999981
  1.8199749999999999  3.0668632400000000  0.4751980300000000
  1.8199749999999999  3.4331424600000000  7.1245081299999997
  1.8199749999999999  5.7878401899999998 11.7675323800000005
  1.8199749999999999  6.4902671200000004 42.7584349099999983
  1.8199749999999999  6.5136667900000003 55.0755281400000030
  0.0000000000000000  1.0843038300000001 36.5984243199999995
  0.0000000000000000  1.1812460700000000 64.3949693299999950
  0.0000000000000000  1.1876857800000000 20.7502292200000014
  0.0000000000000000  1.2030095500000000 24.4203031099999990
  0.0000000000000000  1.2128153200000000 48.9585078799999991
  0.0000000000000000  1.2753791999999999 11.5489105300000006
  0.0000000000000000  1.3260136000000000 33.1568660200000025
  0.0000000000000000  1.3426525000000000  8.3575408800000002
  0.0000000000000000  1.3859064200000000 45.7306417100000004
 -0.0000000000000000  1.3941192899999999 39.7880901699999967
  0.0000000000000000  1.4803242599999999 52.3896234400000012
  0.0000000000000000  1.5458725600000001 58.3266370099999989
  0.0000000000000000  1.5810972599999999  2.4481648800000002
  0.0000000000000000  1.6293248800000000 14.7852778699999998
  0.0000000000000000  1.8393785199999999  5.3401097899999996
  0.0000000000000000  1.8468155300000000 30.3838733599999991
  0.0000000000000000  7.3930957299999998 63.1202039699999986
  0.0000000000000000  7.5165540799999997 34.9762392299999973
  0.0000000000000000  7.6386153900000000 60.0729245500000033
  0.0000000000000000  7.6485143100000004 10.1367917599999995
  0.0000000000000000  7.7508894799999997  0.5734708900000000
  0.0000000000000000  7.7602912399999999 50.6050148699999980
  0.0000000000000000  7.8437098900000004 13.0321240500000002
  0.0000000000000000  7.8866075300000000 19.5660936999999997
  0.0000000000000000  7.9003835999999996 25.5366960899999995
  0.0000000000000000  8.0649158599999993 56.8905138100000016
  0.0000000000000000  8.0842703399999998 44.6427705500000016
  0.0000000000000000  8.0906299700000002 40.9256788699999987
 -0.0000000000000000  8.1091390899999993 28.7924180000000014
  0.0000000000000000  8.2187292999999997 53.3037844799999974
  1.8199749999999999  2.8548415299999998 10.0279541400000003
  1.8199749999999999  2.8685875300000001 38.0807876300000032
  1.8199749999999999  2.9057505899999998 47.3864828299999985
  1.8199749999999999  2.9594721399999999 62.7810293100000010
  1.8199749999999999  2.9874843800000002 12.9807225699999993
  1.8199749999999999  3.2146844400000001 59.9037385499999999
  1.8199749999999999  3.3712872599999999 32.0618895400000028
  1.8199749999999999  3.3761757900000000  3.7937656899999999
  1.8199749999999999  3.3873035200000001 19.6584945500000003
  1.8199749999999999  3.3902954200000002 25.5339931600000014
  1.8199749999999999  3.3989605900000002 40.8580001099999990
  1.8199749999999999  3.4173507200000000 44.6263150799999977
  1.8199749999999999  3.4188530099999999 53.6835010699999984
  1.8199749999999999  3.4838038600000001 16.1713440300000002
  1.8199749999999999  3.5773977200000000 28.9331081400000016
  1.8199749999999999  3.5943482100000002 57.2186909099999994
  1.8199749999999999  5.7479530199999997 36.4071543299999973
  1.8199749999999999  5.7676492300000000 49.3708662000000018
  1.8199749999999999  5.8726741100000002 64.7772168900000054
  1.8199749999999999  5.8899069400000004 24.4762167599999998
  1.8199749999999999  5.9008579200000000 20.6554044099999992
  1.8199749999999999  5.9041609099999999 39.8237872199999998
  1.8199749999999999  5.9178756200000002 33.1946860400000006
  1.8199749999999999  5.9226588500000004 61.4720957400000003
  1.8199749999999999  5.9299814099999999 45.7503651099999971
  1.8199749999999999  6.0488171099999999  8.3573513699999999
  1.8199749999999999  6.1212992100000001 14.7334941300000004
  1.8199749999999999  6.1542604000000001  2.2850126199999998
  1.8199749999999999  6.2530860099999996 58.1957880399999965
  1.8199749999999999  6.2602401600000004 52.1581914699999984
  1.8199749999999999  6.3409757300000003 17.8048009500000006
  1.8199749999999999  6.3635918599999997  5.1789298300000004
  1.8199749999999999  6.3806650200000004 30.2281050399999991
  1.8199749999999999  6.4387219699999996 27.3040620800000013
  0.0000000000000000 -0.1207322900000000  1.7382536799999999
  0.0000000000000000 -0.1302257400000000 14.1889001900000000
  0.0000000000000000  0.3442479700000000 26.1668847199999988
  0.0000000000000000  0.3519579100000000 19.0117658700000014
  0.0000000000000000  0.4608434800000000 44.0772407799999968
 -0.0000000000000000  0.4731254400000000 41.4548416599999996
  0.0000000000000000  0.4751745700000000 31.5065781600000001
  0.0000000000000000  0.5081660700000000 56.7947084400000008
  0.0000000000000000  0.5623881700000000 54.0565511900000004
  0.0000000000000000  0.5766457600000000  6.6203033299999996
  0.0000000000000000  0.5934100200000000 28.8862033199999999
  0.0000000000000000  0.6237448600000000  4.0549882300000002
  0.0000000000000000  0.6576592100000000 16.4495954699999984
  0.0000000000000000  2.0780349100000000 22.5713347099999986
  0.0000000000000000  2.1416074699999998 34.9921311000000017
  0.0000000000000000  2.2794324300000000 47.4584753800000030
 -0.0000000000000000  2.2882124699999999 38.0415883800000003
  0.0000000000000000  2.3109213199999998  9.9822860599999998
  0.0000000000000000  2.3246527000000001 62.9078834999999970
  0.0000000000000000  2.3541292700000001 50.5759475799999976
  0.0000000000000000  2.3826111399999998  0.6133728200000000
  0.0000000000000000  2.4341520600000002 13.0655389199999998
  0.0000000000000000  2.7056898800000000 59.8872908399999986
  0.0000000000000000  2.8553548399999999 25.5634425599999986
  0.0000000000000000  2.8846178400000002 19.6428977600000003
  0.0000000000000000  2.9458426599999998 32.0439894200000026
  0.0000000000000000  2.9707001599999998 41.0014840300000003
  0.0000000000000000  2.9717068200000001 44.4950865799999988
  0.0000000000000000  3.0181983699999999  6.9898338600000001
  0.0000000000000000  3.0659691800000002 53.6669197800000006
  0.0000000000000000  3.0874660100000000  3.7578962900000001
  0.0000000000000000  3.1090013100000000 57.0493950099999978
  0.0000000000000000  3.1453761099999999 16.1993080700000007
  0.0000000000000000  3.1833294300000001 28.9118208500000016
  0.0000000000000000  6.0837746700000004 36.4155568600000024
  0.0000000000000000  6.1737777800000000 49.2537342500000008
  0.0000000000000000  6.2174196400000001 61.4584659599999981
  0.0000000000000000  6.2190670099999998 64.6936011500000063
  0.0000000000000000  6.3109129499999996 11.6578396699999995
  0.0000000000000000  6.3143518399999996 24.3164586299999996
  0.0000000000000000  6.3210822899999997 20.7966455500000009
  0.0000000000000000  6.3760871699999999 33.3522345299999969
  0.0000000000000000  6.4211073000000001  8.4623028100000006
  0.0000000000000000  6.4286293800000003 39.7898666999999975
  0.0000000000000000  6.4501144000000004 45.7964653900000016
  0.0000000000000000  6.5736295499999997 14.6212967299999992
  0.0000000000000000  6.5790332999999999  2.2416936999999999
  0.0000000000000000  6.6397923900000002 52.2032524600000016
  0.0000000000000000  6.8228770399999998 58.2733561300000034
  0.0000000000000000  6.9798828700000000 30.2884086000000003
  0.0000000000000000  7.0123673499999999 17.7765891600000003
  0.0000000000000000  7.0464987199999998 27.2729461999999998
  0.0000000000000000  7.0655404700000002  5.2974273600000004
  0.0000000000000000  7.2181664400000001 42.7586368999999991
  0.0000000000000000  7.2189330199999997 55.1604248699999999
  0.0000000000000000  8.6407452300000003 36.4893066200000007
  0.0000000000000000  8.6524474399999995 61.7811152399999983
  0.0000000000000000  8.7530088100000008 64.3826325299999951
  0.0000000000000000  8.7764733800000005 49.0506067299999984
  0.0000000000000000  8.8024043800000005 21.2653692899999989
  0.0000000000000000  8.8213062600000001 11.5312193399999998
  0.0000000000000000  8.8223130300000001 23.8761724300000004
  0.0000000000000000  8.9228179099999991 33.8406463000000031
  0.0000000000000000  8.9375306299999995 46.3818484700000013
  0.0000000000000000  8.9409405500000005 39.1689908700000018
  0.0000000000000000  8.9609852199999995  8.9301622900000002
  0.0000000000000000  9.1557757399999993 51.7175123499999998
  0.0000000000000000  9.4141145200000000 59.4494157199999975
  1.8199749999999999  1.4135136300000000 36.5974697300000003
  1.8199749999999999  1.5332482100000000 49.0009939299999999
  1.8199749999999999  1.5417091400000000 64.3719332400000042
  1.8199749999999999  1.5574070200000001 11.5616145600000007
  1.8199749999999999  1.6234806600000000 61.3159084899999982
  1.8199749999999999  1.6656584400000001 20.8049792899999986
  1.8199749999999999  1.6703579399999999 24.3409131099999989
  1.8199749999999999  1.7237765000000000 33.2590866800000029
  1.8199749999999999  1.7829633300000001  8.3733083399999995
  1.8199749999999999  1.7859895900000000 45.7642848500000028
  1.8199749999999999  1.7961968800000001 39.7233107200000006
  1.8199749999999999  1.9778678700000001 58.3363419300000032
  1.8199749999999999  2.1115135700000001 52.3137333499999997
  1.8199749999999999  2.1518637100000002  2.3384847299999998
  1.8199749999999999  2.1977650700000000 14.7709166900000000
  1.8199749999999999  2.3952731300000001 30.3745068099999997
  1.8199749999999999  2.4128447199999998  5.3362425000000000
  1.8199749999999999  2.4906682299999998 27.3189215599999997
  1.8199749999999999  2.5180269700000002 42.7493130100000016
  1.8199749999999999  2.5241349700000000 17.8635208900000002
  1.8199749999999999  2.5640136800000000 55.3568143899999967
  1.8199749999999999  3.9790998499999999 11.3754779100000007
  1.8199749999999999  3.9931262400000000 36.5192724400000017
  1.8199749999999999  4.0466868299999996 48.8004729999999967
  1.8199749999999999  4.1140206299999997 64.1144197400000024
  1.8199749999999999  4.1574034199999996 61.4450453899999971
  1.8199749999999999  4.1897370199999999 23.8937718299999986
  1.8199749999999999  4.1973877999999996 21.2749745899999994
  1.8199749999999999  4.2456990399999999 33.8087009899999984
  1.8199749999999999  4.2483890799999999 46.2643331700000005
  1.8199749999999999  4.2603726300000000 39.1608785000000026
  1.8199749999999999  4.3386165600000002  8.8889166599999996
  1.8199749999999999  4.5603563899999999 58.7793638300000012
  1.8199749999999999  4.7615427700000001 13.6098080600000007
  1.8199749999999999  4.8195177899999999  1.1357278799999999
  1.8199749999999999  4.8285260900000004 51.0833909300000002
  1.8199749999999999  5.0137501599999998 18.9591320799999998
  1.8199749999999999  5.0473365499999998 26.1843016300000002
  1.8199749999999999  5.0828984999999998 31.4695786899999987
  1.8199749999999999  5.1034768100000001 41.4463700100000025
  1.8199749999999999  5.1295070000000003 44.0461652999999984
  1.8199749999999999  5.1363391900000002  3.8619302900000001
  1.8199749999999999  5.1707231499999997 53.7144127099999977
  1.8199749999999999  5.2257936100000002 16.3005739699999985
  1.8199749999999999  5.2322286199999999 56.4515209999999996
  1.8199749999999999  5.2382778800000001  6.5328004399999999
  1.8199749999999999  5.3116739900000001 28.8082187900000015
  1.8199749999999999  6.7746579999999996 22.5545504200000018
  1.8199749999999999  6.7865908399999997 38.0265487300000018
  1.8199749999999999  6.7985473900000004 47.5675575599999974
  1.8199749999999999  6.8399236300000004 63.0860914399999970
  1.8199749999999999  6.9532491700000003 34.9565856400000001
  1.8199749999999999  7.0258952900000002 10.0531100400000000
  1.8199749999999999  7.1140622000000002 59.9722547200000022
  1.8199749999999999  7.3275843199999997 50.5436071000000027
  1.8199749999999999  7.3586911400000004 13.1427369800000005
  1.8199749999999999  7.3647631799999997  0.7343511100000000
  1.8199749999999999  7.4670602400000003 19.4793671000000010
  1.8199749999999999  7.4971055399999997 25.5855232299999997
  1.8199749999999999  7.5115612599999997 31.9596752600000009
  1.8199749999999999  7.6189587899999998 44.5439935300000016
  1.8199749999999999  7.6238015600000004 40.9889250900000022
  1.8199749999999999  7.6309960300000004  7.0895109300000003
  1.8199749999999999  7.6528881599999998  3.6660278200000000
  1.8199749999999999  7.6952930899999998 16.0880501500000008
  1.8199749999999999  7.7250872900000003 56.8384979499999972
  1.8199749999999999  7.7822962499999999 53.4618490699999995
  1.8199749999999999  7.8364448800000002 28.8286013600000004
